27      4       
10      10      10      10      
0       0       0       0       0       3       2       3       5       
1       1       2       1       2       5       6       7       8       9       10      
7       5       3       5       4       2       4       10      
10      4       5       6       3       6       9       12      14      15      16      17      
3       4       4       5       6       6       9       11      12      15      16      26      
7       5       2       5       5       6       11      12      14      15      16      19      
3       6       4       4       9       6       11      13      16      19      21      26      
7       7       4       7       6       5       14      16      18      19      20      
4       8       10      5       5       4       13      18      19      21      
3       3       3       5       4       4       13      18      20      26      
2       3       4       5       5       4       18      23      24      25      
8       4       8       3       2       3       18      20      24      
10      4       3       3       8       4       22      23      24      25      
9       7       5       8       5       4       22      23      25      26      
1       7       5       3       3       3       18      23      25      
2       5       7       4       5       3       22      23      24      
2       5       8       4       5       1       18      
2       3       2       8       3       1       22      
8       8       6       6       6       1       22      
5       6       3       5       6       1       23      
10      8       3       9       4       1       24      
10      3       8       1       5       1       27      
3       8       10      7       5       1       27      
8       4       7       5       5       1       27      
3       4       5       5       4       1       27      
10      3       4       6       10      1       27      
0       0       0       0       0       0       
